objective value:                                  -11
t_n_2                                               1 	(obj:-1)
t_n_99                                              1 	(obj:-1)
t_n_351                                             1 	(obj:-1)
t_n_587                                             1 	(obj:-1)
t_n_607                                             1 	(obj:-1)
t_n_645                                             1 	(obj:-1)
t_n_709                                             1 	(obj:-1)
t_n_721                                             1 	(obj:-1)
t_n_739                                             1 	(obj:-1)
t_n_764                                             1 	(obj:-1)
t_n_914                                             1 	(obj:-1)
